(set-info :smt-lib-version 2.6)
(set-logic QF_BV)
(set-info :source |
    Sequential equivalence checking.
    Calypto Design Systems, Inc. <www.calypto.com>
  |)
(set-info :category "industrial")
(set-info :status unknown)
(declare-fun P_2 () (_ BitVec 8192))
(assert (let ((?v_9 (concat (_ bv0 1) (bvshl (concat (_ bv0 4) ((_ extract 2411 2404) P_2)) (_ bv4 12))))) (let ((?v_50 (concat (_ bv0 1) (bvadd (concat (_ bv0 1) (bvshl (concat (_ bv0 4) ((_ extract 2395 2388) P_2)) (_ bv4 12))) ?v_9))) (?v_10 (concat (_ bv0 1) (bvshl (concat (_ bv0 4) ((_ extract 2427 2420) P_2)) (_ bv4 12)))) (?v_11 (concat (_ bv0 1) (bvshl (concat (_ bv0 4) ((_ extract 2443 2436) P_2)) (_ bv4 12))))) (let ((?v_45 (concat (_ bv0 1) (bvadd ?v_10 ?v_11)))) (let ((?v_26 (concat (_ bv0 1) (bvadd ?v_50 ?v_45))) (?v_4 (concat (_ bv0 1) (bvshl (concat (_ bv0 4) ((_ extract 2155 2148) P_2)) (_ bv4 12))))) (let ((?v_51 (concat (_ bv0 1) (bvadd (concat (_ bv0 1) (bvshl (concat (_ bv0 4) ((_ extract 2139 2132) P_2)) (_ bv4 12))) ?v_4))) (?v_5 (concat (_ bv0 1) (bvshl (concat (_ bv0 4) ((_ extract 2171 2164) P_2)) (_ bv4 12)))) (?v_13 (concat (_ bv0 1) (bvshl (concat (_ bv0 4) ((_ extract 2187 2180) P_2)) (_ bv4 12))))) (let ((?v_23 (concat (_ bv0 1) (bvadd ?v_5 ?v_13)))) (let ((?v_27 (concat (_ bv0 1) (bvadd ?v_51 ?v_23)))) (let ((?v_0 (concat (_ bv0 1) (bvadd ?v_26 ?v_27))) (?v_6 (concat (_ bv0 1) (bvshl (concat (_ bv0 4) ((_ extract 1899 1892) P_2)) (_ bv4 12))))) (let ((?v_52 (concat (_ bv0 1) (bvadd (concat (_ bv0 1) (bvshl (concat (_ bv0 4) ((_ extract 1883 1876) P_2)) (_ bv4 12))) ?v_6))) (?v_7 (concat (_ bv0 1) (bvshl (concat (_ bv0 4) ((_ extract 1915 1908) P_2)) (_ bv4 12)))) (?v_15 (concat (_ bv0 1) (bvshl (concat (_ bv0 4) ((_ extract 1931 1924) P_2)) (_ bv4 12))))) (let ((?v_24 (concat (_ bv0 1) (bvadd ?v_7 ?v_15)))) (let ((?v_28 (concat (_ bv0 1) (bvadd ?v_52 ?v_24))) (?v_16 (concat (_ bv0 1) (bvshl (concat (_ bv0 4) ((_ extract 1643 1636) P_2)) (_ bv4 12))))) (let ((?v_69 (concat (_ bv0 1) (bvadd (concat (_ bv0 1) (bvshl (concat (_ bv0 4) ((_ extract 1627 1620) P_2)) (_ bv4 12))) ?v_16))) (?v_17 (concat (_ bv0 1) (bvshl (concat (_ bv0 4) ((_ extract 1659 1652) P_2)) (_ bv4 12)))) (?v_18 (concat (_ bv0 1) (bvshl (concat (_ bv0 4) ((_ extract 1675 1668) P_2)) (_ bv4 12))))) (let ((?v_70 (concat (_ bv0 1) (bvadd ?v_17 ?v_18)))) (let ((?v_1 (concat (_ bv0 1) (bvadd ?v_28 (concat (_ bv0 1) (bvadd ?v_69 ?v_70)))))) (let ((?v_2 ((_ extract 15 2) (bvsub ?v_0 ?v_1))) (?v_3 ((_ extract 4 0) (bvlshr (concat ((_ extract 11 0) (bvlshr (bvadd ?v_0 ?v_1) (_ bv4 16))) (_ bv0 1)) (_ bv8 13))))) (let ((?v_65 ((_ sign_extend 4) (concat (_ bv0 2) ((_ sign_extend 1) (bvadd (_ bv64 7) (concat (_ bv0 2) ?v_3)))))) (?v_12 (concat (_ bv0 1) (bvadd ?v_4 ?v_5))) (?v_14 (concat (_ bv0 1) (bvadd ?v_6 ?v_7)))) (let ((?v_8 (bvsub ?v_12 ?v_14)) (?v_72 ((_ sign_extend 3) (concat (_ bv0 2) (bvadd (_ bv256 9) (concat (_ bv0 4) ?v_3)))))) (let ((?v_108 (ite (= (_ bv1 1) (ite (or (bvsle ?v_65 (ite (= (_ bv1 1) ((_ extract 13 13) ?v_2)) (bvneg ?v_2) ?v_2)) (bvsle ?v_72 (ite (= (_ bv1 1) ((_ extract 13 13) ?v_8)) (bvneg ?v_8) ?v_8))) (_ bv1 1) (_ bv0 1))) (_ bv0 14) ?v_8)) (?v_33 (concat (_ bv0 1) (bvadd ?v_9 ?v_10))) (?v_59 (concat (_ bv0 1) (bvadd ?v_11 (concat (_ bv0 1) (bvshl (concat (_ bv0 4) ((_ extract 2459 2452) P_2)) (_ bv4 12))))))) (let ((?v_38 (concat (_ bv0 1) (bvadd ?v_33 ?v_59))) (?v_60 (concat (_ bv0 1) (bvadd ?v_13 (concat (_ bv0 1) (bvshl (concat (_ bv0 4) ((_ extract 2203 2196) P_2)) (_ bv4 12))))))) (let ((?v_39 (concat (_ bv0 1) (bvadd ?v_12 ?v_60)))) (let ((?v_19 (concat (_ bv0 1) (bvadd ?v_38 ?v_39))) (?v_61 (concat (_ bv0 1) (bvadd ?v_15 (concat (_ bv0 1) (bvshl (concat (_ bv0 4) ((_ extract 1947 1940) P_2)) (_ bv4 12))))))) (let ((?v_40 (concat (_ bv0 1) (bvadd ?v_14 ?v_61))) (?v_79 (concat (_ bv0 1) (bvadd ?v_16 ?v_17))) (?v_80 (concat (_ bv0 1) (bvadd ?v_18 (concat (_ bv0 1) (bvshl (concat (_ bv0 4) ((_ extract 1691 1684) P_2)) (_ bv4 12))))))) (let ((?v_20 (concat (_ bv0 1) (bvadd ?v_40 (concat (_ bv0 1) (bvadd ?v_79 ?v_80)))))) (let ((?v_21 ((_ extract 15 2) (bvsub ?v_19 ?v_20))) (?v_22 ((_ extract 4 0) (bvlshr (concat ((_ extract 11 0) (bvlshr (bvadd ?v_19 ?v_20) (_ bv4 16))) (_ bv0 1)) (_ bv8 13))))) (let ((?v_75 ((_ sign_extend 4) (concat (_ bv0 2) ((_ sign_extend 1) (bvadd (_ bv64 7) (concat (_ bv0 2) ?v_22)))))) (?v_25 (bvsub ?v_23 ?v_24)) (?v_82 ((_ sign_extend 3) (concat (_ bv0 2) (bvadd (_ bv256 9) (concat (_ bv0 4) ?v_22)))))) (let ((?v_114 (ite (= (_ bv1 1) (ite (or (bvsle ?v_75 (ite (= (_ bv1 1) ((_ extract 13 13) ?v_21)) (bvneg ?v_21) ?v_21)) (bvsle ?v_82 (ite (= (_ bv1 1) ((_ extract 13 13) ?v_25)) (bvneg ?v_25) ?v_25))) (_ bv1 1) (_ bv0 1))) (_ bv0 14) ?v_25)) (?v_35 (concat (_ bv0 1) (bvshl (concat (_ bv0 4) ((_ extract 2667 2660) P_2)) (_ bv4 12))))) (let ((?v_48 (concat (_ bv0 1) (bvadd (concat (_ bv0 1) (bvshl (concat (_ bv0 4) ((_ extract 2651 2644) P_2)) (_ bv4 12))) ?v_35))) (?v_36 (concat (_ bv0 1) (bvshl (concat (_ bv0 4) ((_ extract 2683 2676) P_2)) (_ bv4 12)))) (?v_37 (concat (_ bv0 1) (bvshl (concat (_ bv0 4) ((_ extract 2699 2692) P_2)) (_ bv4 12))))) (let ((?v_49 (concat (_ bv0 1) (bvadd ?v_36 ?v_37)))) (let ((?v_29 (concat (_ bv0 1) (bvadd (concat (_ bv0 1) (bvadd ?v_48 ?v_49)) ?v_26))) (?v_30 (concat (_ bv0 1) (bvadd ?v_27 ?v_28)))) (let ((?v_31 ((_ extract 15 2) (bvsub ?v_29 ?v_30))) (?v_32 ((_ extract 4 0) (bvlshr (concat ((_ extract 11 0) (bvlshr (bvadd ?v_29 ?v_30) (_ bv4 16))) (_ bv0 1)) (_ bv8 13))))) (let ((?v_47 ((_ sign_extend 4) (concat (_ bv0 2) ((_ sign_extend 1) (bvadd (_ bv64 7) (concat (_ bv0 2) ?v_32)))))) (?v_34 (bvsub ?v_33 ?v_12)) (?v_54 ((_ sign_extend 3) (concat (_ bv0 2) (bvadd (_ bv256 9) (concat (_ bv0 4) ?v_32)))))) (let ((?v_105 (ite (= (_ bv1 1) (ite (or (bvsle ?v_47 (ite (= (_ bv1 1) ((_ extract 13 13) ?v_31)) (bvneg ?v_31) ?v_31)) (bvsle ?v_54 (ite (= (_ bv1 1) ((_ extract 13 13) ?v_34)) (bvneg ?v_34) ?v_34))) (_ bv1 1) (_ bv0 1))) (_ bv0 14) ?v_34)) (?v_57 (concat (_ bv0 1) (bvadd ?v_35 ?v_36))) (?v_58 (concat (_ bv0 1) (bvadd ?v_37 (concat (_ bv0 1) (bvshl (concat (_ bv0 4) ((_ extract 2715 2708) P_2)) (_ bv4 12))))))) (let ((?v_41 (concat (_ bv0 1) (bvadd (concat (_ bv0 1) (bvadd ?v_57 ?v_58)) ?v_38))) (?v_42 (concat (_ bv0 1) (bvadd ?v_39 ?v_40)))) (let ((?v_43 ((_ extract 15 2) (bvsub ?v_41 ?v_42))) (?v_44 ((_ extract 4 0) (bvlshr (concat ((_ extract 11 0) (bvlshr (bvadd ?v_41 ?v_42) (_ bv4 16))) (_ bv0 1)) (_ bv8 13))))) (let ((?v_56 ((_ sign_extend 4) (concat (_ bv0 2) ((_ sign_extend 1) (bvadd (_ bv64 7) (concat (_ bv0 2) ?v_44)))))) (?v_46 (bvsub ?v_45 ?v_23)) (?v_63 ((_ sign_extend 3) (concat (_ bv0 2) (bvadd (_ bv256 9) (concat (_ bv0 4) ?v_44)))))) (let ((?v_111 (ite (= (_ bv1 1) (ite (or (bvsle ?v_56 (ite (= (_ bv1 1) ((_ extract 13 13) ?v_43)) (bvneg ?v_43) ?v_43)) (bvsle ?v_63 (ite (= (_ bv1 1) ((_ extract 13 13) ?v_46)) (bvneg ?v_46) ?v_46))) (_ bv1 1) (_ bv0 1))) (_ bv0 14) ?v_46)) (?v_66 ((_ sign_extend 1) (bvsub ?v_50 ?v_45)))) (let ((?v_95 ((_ sign_extend 1) (bvadd ((_ sign_extend 1) (bvsub ?v_48 ?v_49)) ?v_66))) (?v_67 ((_ sign_extend 1) (bvsub ?v_51 ?v_23))) (?v_68 ((_ sign_extend 1) (bvsub ?v_52 ?v_24)))) (let ((?v_96 ((_ sign_extend 1) (bvadd ?v_67 ?v_68)))) (let ((?v_53 ((_ extract 15 2) (bvadd ?v_95 ?v_96))) (?v_98 ((_ sign_extend 1) (bvsub ?v_9 ?v_10))) (?v_73 ((_ sign_extend 1) (bvsub ?v_4 ?v_5)))) (let ((?v_55 (bvadd ?v_98 ?v_73))) (let ((?v_106 (ite (= (_ bv1 1) (ite (or (bvsle ?v_47 (ite (= (_ bv1 1) ((_ extract 13 13) ?v_53)) (bvneg ?v_53) ?v_53)) (bvsle ?v_54 (ite (= (_ bv1 1) ((_ extract 13 13) ?v_55)) (bvneg ?v_55) ?v_55))) (_ bv1 1) (_ bv0 1))) (_ bv0 14) ?v_55)) (?v_76 ((_ sign_extend 1) (bvsub ?v_33 ?v_59)))) (let ((?v_100 ((_ sign_extend 1) (bvadd ((_ sign_extend 1) (bvsub ?v_57 ?v_58)) ?v_76))) (?v_77 ((_ sign_extend 1) (bvsub ?v_12 ?v_60))) (?v_78 ((_ sign_extend 1) (bvsub ?v_14 ?v_61)))) (let ((?v_101 ((_ sign_extend 1) (bvadd ?v_77 ?v_78)))) (let ((?v_62 ((_ extract 15 2) (bvadd ?v_100 ?v_101))) (?v_103 ((_ sign_extend 1) (bvsub ?v_10 ?v_11))) (?v_83 ((_ sign_extend 1) (bvsub ?v_5 ?v_13)))) (let ((?v_64 (bvadd ?v_103 ?v_83))) (let ((?v_112 (ite (= (_ bv1 1) (ite (or (bvsle ?v_56 (ite (= (_ bv1 1) ((_ extract 13 13) ?v_62)) (bvneg ?v_62) ?v_62)) (bvsle ?v_63 (ite (= (_ bv1 1) ((_ extract 13 13) ?v_64)) (bvneg ?v_64) ?v_64))) (_ bv1 1) (_ bv0 1))) (_ bv0 14) ?v_64)) (?v_85 ((_ sign_extend 1) (bvadd ?v_66 ?v_67))) (?v_86 ((_ sign_extend 1) (bvadd ?v_68 ((_ sign_extend 1) (bvsub ?v_69 ?v_70)))))) (let ((?v_71 ((_ extract 15 2) (bvadd ?v_85 ?v_86))) (?v_88 ((_ sign_extend 1) (bvsub ?v_6 ?v_7)))) (let ((?v_74 (bvadd ?v_73 ?v_88))) (let ((?v_109 (ite (= (_ bv1 1) (ite (or (bvsle ?v_65 (ite (= (_ bv1 1) ((_ extract 13 13) ?v_71)) (bvneg ?v_71) ?v_71)) (bvsle ?v_72 (ite (= (_ bv1 1) ((_ extract 13 13) ?v_74)) (bvneg ?v_74) ?v_74))) (_ bv1 1) (_ bv0 1))) (_ bv0 14) ?v_74)) (?v_90 ((_ sign_extend 1) (bvadd ?v_76 ?v_77))) (?v_91 ((_ sign_extend 1) (bvadd ?v_78 ((_ sign_extend 1) (bvsub ?v_79 ?v_80)))))) (let ((?v_81 ((_ extract 15 2) (bvadd ?v_90 ?v_91))) (?v_93 ((_ sign_extend 1) (bvsub ?v_7 ?v_15)))) (let ((?v_84 (bvadd ?v_83 ?v_93))) (let ((?v_115 (ite (= (_ bv1 1) (ite (or (bvsle ?v_75 (ite (= (_ bv1 1) ((_ extract 13 13) ?v_81)) (bvneg ?v_81) ?v_81)) (bvsle ?v_82 (ite (= (_ bv1 1) ((_ extract 13 13) ?v_84)) (bvneg ?v_84) ?v_84))) (_ bv1 1) (_ bv0 1))) (_ bv0 14) ?v_84)) (?v_87 ((_ extract 15 2) (bvsub ?v_85 ?v_86))) (?v_89 (bvsub ?v_73 ?v_88))) (let ((?v_110 (ite (= (_ bv1 1) (ite (or (bvsle ?v_65 (ite (= (_ bv1 1) ((_ extract 13 13) ?v_87)) (bvneg ?v_87) ?v_87)) (bvsle ?v_72 (ite (= (_ bv1 1) ((_ extract 13 13) ?v_89)) (bvneg ?v_89) ?v_89))) (_ bv1 1) (_ bv0 1))) (_ bv0 14) ?v_89)) (?v_92 ((_ extract 15 2) (bvsub ?v_90 ?v_91))) (?v_94 (bvsub ?v_83 ?v_93))) (let ((?v_116 (ite (= (_ bv1 1) (ite (or (bvsle ?v_75 (ite (= (_ bv1 1) ((_ extract 13 13) ?v_92)) (bvneg ?v_92) ?v_92)) (bvsle ?v_82 (ite (= (_ bv1 1) ((_ extract 13 13) ?v_94)) (bvneg ?v_94) ?v_94))) (_ bv1 1) (_ bv0 1))) (_ bv0 14) ?v_94)) (?v_97 ((_ extract 15 2) (bvsub ?v_95 ?v_96))) (?v_99 (bvsub ?v_98 ?v_73))) (let ((?v_107 (ite (= (_ bv1 1) (ite (or (bvsle ?v_47 (ite (= (_ bv1 1) ((_ extract 13 13) ?v_97)) (bvneg ?v_97) ?v_97)) (bvsle ?v_54 (ite (= (_ bv1 1) ((_ extract 13 13) ?v_99)) (bvneg ?v_99) ?v_99))) (_ bv1 1) (_ bv0 1))) (_ bv0 14) ?v_99)) (?v_102 ((_ extract 15 2) (bvsub ?v_100 ?v_101))) (?v_104 (bvsub ?v_103 ?v_83))) (let ((?v_113 (ite (= (_ bv1 1) (ite (or (bvsle ?v_56 (ite (= (_ bv1 1) ((_ extract 13 13) ?v_102)) (bvneg ?v_102) ?v_102)) (bvsle ?v_63 (ite (= (_ bv1 1) ((_ extract 13 13) ?v_104)) (bvneg ?v_104) ?v_104))) (_ bv1 1) (_ bv0 1))) (_ bv0 14) ?v_104))) (not (= (concat (bvadd ((_ sign_extend 1) (bvadd ((_ sign_extend 1) (bvsub ((_ sign_extend 1) (bvadd ((_ sign_extend 1) ?v_108) ((_ sign_extend 1) ?v_114))) ((_ sign_extend 1) (bvadd ((_ sign_extend 1) ?v_105) ((_ sign_extend 1) ?v_111))))) ((_ sign_extend 1) (bvadd ((_ sign_extend 1) (bvadd ((_ sign_extend 1) (bvneg ?v_106)) ((_ sign_extend 1) ?v_112))) ((_ sign_extend 1) (bvadd ((_ sign_extend 1) (bvneg ?v_109)) ((_ sign_extend 1) ?v_115))))))) ((_ sign_extend 2) (bvsub ((_ sign_extend 1) (bvadd ((_ sign_extend 1) (bvneg ?v_110)) ((_ sign_extend 1) ?v_116))) ((_ sign_extend 1) (bvadd ((_ sign_extend 1) (bvneg ?v_107)) ((_ sign_extend 1) ?v_113)))))) (_ bv0 4)) (bvadd (bvadd ((_ sign_extend 1) (bvadd ((_ sign_extend 1) (bvadd ((_ sign_extend 1) (bvadd ((_ sign_extend 1) (bvshl (concat (_ bv0 4) (bvmul ?v_105 (_ bv16383 14))) (_ bv4 18))) ((_ sign_extend 1) (bvshl (concat (_ bv0 4) (bvmul ?v_106 (_ bv16383 14))) (_ bv4 18))))) ((_ sign_extend 2) (bvshl (concat (_ bv0 4) ?v_107) (_ bv4 18))))) ((_ sign_extend 1) (bvadd ((_ sign_extend 1) (bvadd ((_ sign_extend 1) (bvshl (concat (_ bv0 4) ?v_108) (_ bv4 18))) ((_ sign_extend 1) (bvshl (concat (_ bv0 4) (bvmul ?v_109 (_ bv16383 14))) (_ bv4 18))))) ((_ sign_extend 2) (bvshl (concat (_ bv0 4) (bvmul ?v_110 (_ bv16383 14))) (_ bv4 18))))))) ((_ sign_extend 2) (bvadd ((_ sign_extend 1) (bvadd ((_ sign_extend 1) (bvshl (concat (_ bv0 4) (bvmul ?v_111 (_ bv16383 14))) (_ bv4 18))) ((_ sign_extend 1) (bvshl (concat (_ bv0 4) ?v_112) (_ bv4 18))))) ((_ sign_extend 2) (bvshl (concat (_ bv0 4) (bvmul ?v_113 (_ bv16383 14))) (_ bv4 18)))))) ((_ sign_extend 2) (bvadd ((_ sign_extend 1) (bvadd ((_ sign_extend 1) (bvshl (concat (_ bv0 4) ?v_114) (_ bv4 18))) ((_ sign_extend 1) (bvshl (concat (_ bv0 4) ?v_115) (_ bv4 18))))) ((_ sign_extend 2) (bvshl (concat (_ bv0 4) ?v_116) (_ bv4 18)))))))))))))))))))))))))))))))))))))))))))))))))))))))))))))))))
(check-sat)
(exit)
